NAME : zqloutput/eax-hard-simple-rescaleandround/50-7.tsp
TYPE : TSP
DIMENSION : 50
EDGE_WEIGHT_TYPE : EUC_2D
NODE_COORD_SECTION
1 965455 13489
2 485106 672495
3 91625 597293
4 491642 317026
5 498893 880687
6 654752 130505
7 600570 983507
8 988023 961242
9 125016 716671
10 174891 987599
11 52432 397188
12 963416 744400
13 689026 521047
14 122062 818865
15 175333 95908
16 329808 880702
17 485103 156336
18 362190 696948
19 958144 746181
20 532239 961270
21 780362 155696
22 640 361717
23 277150 397626
24 18147 533559
25 443849 335577
26 441496 425057
27 661559 892744
28 207341 968805
29 313769 864089
30 395523 68342
31 329208 603947
32 12594 632515
33 763597 399789
34 738988 559547
35 413728 921536
36 530365 112943
37 697759 819984
38 544962 930166
39 276317 294087
40 704614 855036
41 180516 924981
42 652154 746109
43 981741 979468
44 90503 968227
45 459126 810884
46 945227 506012
47 246904 359700
48 7898 764025
49 495170 786597
50 13231 609372
EOF
